
******************************************************************************
This program contains Ipopt, a library for large-scale nonlinear optimization.
 Ipopt is released as open source code under the Eclipse Public License (EPL).
         For more information visit https://github.com/coin-or/Ipopt
******************************************************************************

This is Ipopt version 3.14.19, running with linear solver MUMPS 5.8.1.

Number of nonzeros in equality constraint Jacobian...:     4389
Number of nonzeros in inequality constraint Jacobian.:        0
Number of nonzeros in Lagrangian Hessian.............:     1050

Total number of variables............................:     1287
                     variables with only lower bounds:        0
                variables with lower and upper bounds:      457
                     variables with only upper bounds:        0
Total number of equality constraints.................:     1274
Total number of inequality constraints...............:        0
        inequality constraints with only lower bounds:        0
   inequality constraints with lower and upper bounds:        0
        inequality constraints with only upper bounds:        0

iter    objective    inf_pr   inf_du lg(mu)  ||d||  lg(rg) alpha_du alpha_pr  ls
   0  9.8520084e+00 9.86e+01 2.28e-04  -1.0 0.00e+00    -  0.00e+00 0.00e+00   0
   1  9.8521310e+00 1.98e-01 2.21e+01  -1.0 9.80e+01    -  4.20e-02 1.00e+00h  1
   2  9.8526260e+00 4.16e-03 2.07e-01  -1.0 1.94e-01    -  9.45e-01 1.00e+00h  1
   3  9.8617761e+00 4.31e-01 2.56e+00  -1.0 3.10e+00    -  6.09e-01 1.00e+00f  1
   4  9.8692609e+00 1.97e-01 1.50e+00  -1.0 3.08e+00    -  9.95e-01 6.24e-01h  1
   5  9.8739380e+00 1.25e-01 1.91e-03  -1.0 9.72e-01    -  1.00e+00 1.00e+00f  1
   6  9.8625968e+00 7.82e-01 3.14e-03  -2.5 1.24e+00    -  1.00e+00 1.00e+00h  1
   7  9.8624712e+00 1.03e-01 2.79e-05  -2.5 1.19e+00    -  1.00e+00 1.00e+00h  1
   8  9.8625642e+00 4.23e-05 3.58e-07  -2.5 1.19e-01    -  1.00e+00 1.00e+00h  1
   9  9.8619410e+00 3.19e-03 1.06e-02  -3.8 2.41e-01    -  8.20e-01 1.00e+00h  1
iter    objective    inf_pr   inf_du lg(mu)  ||d||  lg(rg) alpha_du alpha_pr  ls
  10  9.8527973e+00 2.45e-03 3.58e-03  -3.8 3.67e+00    -  4.03e-01 1.00e+00h  1
  11  9.8513772e+00 8.02e-05 1.02e-04  -3.8 7.72e-01    -  1.00e+00 1.00e+00h  1
  12  9.8482246e+00 3.43e-04 4.86e-04  -5.7 1.51e+00    -  7.95e-01 9.52e-01h  1
  13  9.8482844e+00 3.39e-08 4.03e-02  -5.7 2.40e-01    -  7.20e-01 1.00e+00h  1
  14  9.8482412e+00 7.87e-08 3.79e-03  -5.7 2.94e-01    -  1.00e+00 6.69e-01h  1
  15  9.8482459e+00 5.77e-09 3.22e-03  -5.7 1.30e-01    -  5.28e-01 1.00e+00f  1
  16  9.8482388e+00 2.25e-09 2.66e-09  -5.7 9.35e-02    -  1.00e+00 1.00e+00h  1
  17  9.8482339e+00 1.21e-09 1.13e-03  -8.6 4.13e-02    -  9.55e-01 8.81e-01h  1
  18  9.8482338e+00 6.18e-12 1.61e-13  -8.6 3.29e-05    -  1.00e+00 1.00e+00f  1

Number of Iterations....: 18

                                   (scaled)                 (unscaled)
Objective...............:   9.8482338489579444e+00    9.8482338489579444e+00
Dual infeasibility......:   1.6053824936079764e-13    1.6053824936079764e-13
Constraint violation....:   6.1799454445580999e-12    6.1799454445580999e-12
Variable bound violation:   0.0000000000000000e+00    0.0000000000000000e+00
Complementarity.........:   2.6016458940691824e-09    2.6016458940691824e-09
Overall NLP error.......:   2.6016458940691824e-09    2.6016458940691824e-09


Number of objective function evaluations             = 19
Number of objective gradient evaluations             = 19
Number of equality constraint evaluations            = 19
Number of inequality constraint evaluations          = 0
Number of equality constraint Jacobian evaluations   = 19
Number of inequality constraint Jacobian evaluations = 0
Number of Lagrangian Hessian evaluations             = 18
Total seconds in IPOPT                               = 0.082

EXIT: Optimal Solution Found.
